TCS_Benchmarks/redos_fix/snort1_output_distinct_73_72_0_0.smt2
(set-logic QF_S)
(declare-const x String)
(assert (str.in.re x (re.inter  (re.++ (re.* (re.comp  (str.to_re "\u{0A}")) ) (re.+  (re.union (re.union (re.range "\u{09}" "\u{0d}") (re.range "\u{20}" "\u{20}") (re.range "\u{85}" "\u{85}") (re.range "\u{a0}" "\u{a0}")) (re.union  (re.++  (str.to.re "\u{25}") (re.++  (str.to.re "\u{32}")  (str.to.re "\u{30}")))  (str.to.re "\u{2f}"))) ))  (re.++ (re.* (re.comp  (str.to_re "\u{0A}")) ) (re.++  (re.++  (re.union  (str.to.re "\u{3c}")  (re.++  (str.to.re "\u{25}") (re.++  (str.to.re "\u{33}")  (re.union  (str.to.re "\u{63}")  (str.to.re "\u{43}"))))) (re.++  (re.union  (str.to.re "\u{73}")  (str.to.re "\u{53}")) (re.++  (re.union  (str.to.re "\u{63}")  (str.to.re "\u{43}")) (re.++  (re.union  (str.to.re "\u{72}")  (str.to.re "\u{52}")) (re.++  (re.union  (str.to.re "\u{69}")  (str.to.re "\u{49}")) (re.++  (re.union  (str.to.re "\u{70}")  (str.to.re "\u{50}"))  (re.union  (str.to.re "\u{74}")  (str.to.re "\u{54}")))))))) (re.+  (re.union (re.union (re.range "\u{09}" "\u{0d}") (re.range "\u{20}" "\u{20}") (re.range "\u{85}" "\u{85}") (re.range "\u{a0}" "\u{a0}")) (re.union  (re.++  (str.to.re "\u{25}") (re.++  (str.to.re "\u{32}")  (str.to.re "\u{30}")))  (str.to.re "\u{2f}"))) ))) )))
(check-sat)
(get-model)