TCS_Benchmarks/redos_fix/snort1_output_distinct_73_72_0_0.txt
([^\n]*)((\s|%20|\/)+)
([^\n]*)((<|%3[cC])[sS][cC][rR][iI][pP][tT])((\s|%20|\/)+)